Route 1: 0 60 2 36 33 3 62 85 63 39 95 0
Route 2: 0 92 28 88 24 93 42 53 25 14 21 0
Route 3: 0 79 11 43 91 99 80 0
Route 4: 0 47 20 27 87 52 55 86 1 13 67 0
Route 5: 0 78 54 75 50 48 57 100 70 56 73 0
Route 6: 0 37 29 84 76 22 69 6 66 41 32 0
Route 7: 0 68 26 19 74 71 90 12 77 23 4 0
Route 8: 0 44 59 64 58 8 17 31 83 96 0
Route 9: 0 40 7 98 10 89 49 0
Route 10: 0 65 61 82 30 45 5 46 0
Route 11: 0 34 9 72 81 18 94 15 38 16 51 97 35 0
